c File: flat200_3_0.col
c
c SOURCE: Joseph Culberson (joe@cs.ualberta.ca)
c DESCRIPTION: Quasi-random coloring problem
c              generated with flatness = 0
c                             probability = 0.036
c                             known coloring = 3
c                             random seed = 1027
c              Creation Date:  Wed Feb 24 10:39:44 1999
c Maximum degree = 8 Minimum degree = 1
c COLOR VERIFICATION: Using the permuted order
c under simple greedy yields the specified
c coloring number
c Color = 3 specified partitions = 3
c p edge 200 479
c cnf created by edge2cnf
p cnf 600 2237
-1 -2 0
-1 -3 0
-2 -3 0
1 2 3 0
-4 -5 0
-4 -6 0
-5 -6 0
4 5 6 0
-7 -8 0
-7 -9 0
-8 -9 0
7 8 9 0
-10 -11 0
-10 -12 0
-11 -12 0
10 11 12 0
-13 -14 0
-13 -15 0
-14 -15 0
13 14 15 0
-16 -17 0
-16 -18 0
-17 -18 0
16 17 18 0
-19 -20 0
-19 -21 0
-20 -21 0
19 20 21 0
-22 -23 0
-22 -24 0
-23 -24 0
22 23 24 0
-25 -26 0
-25 -27 0
-26 -27 0
25 26 27 0
-28 -29 0
-28 -30 0
-29 -30 0
28 29 30 0
-31 -32 0
-31 -33 0
-32 -33 0
31 32 33 0
-34 -35 0
-34 -36 0
-35 -36 0
34 35 36 0
-37 -38 0
-37 -39 0
-38 -39 0
37 38 39 0
-40 -41 0
-40 -42 0
-41 -42 0
40 41 42 0
-43 -44 0
-43 -45 0
-44 -45 0
43 44 45 0
-46 -47 0
-46 -48 0
-47 -48 0
46 47 48 0
-49 -50 0
-49 -51 0
-50 -51 0
49 50 51 0
-52 -53 0
-52 -54 0
-53 -54 0
52 53 54 0
-55 -56 0
-55 -57 0
-56 -57 0
55 56 57 0
-58 -59 0
-58 -60 0
-59 -60 0
58 59 60 0
-61 -62 0
-61 -63 0
-62 -63 0
61 62 63 0
-64 -65 0
-64 -66 0
-65 -66 0
64 65 66 0
-67 -68 0
-67 -69 0
-68 -69 0
67 68 69 0
-70 -71 0
-70 -72 0
-71 -72 0
70 71 72 0
-73 -74 0
-73 -75 0
-74 -75 0
73 74 75 0
-76 -77 0
-76 -78 0
-77 -78 0
76 77 78 0
-79 -80 0
-79 -81 0
-80 -81 0
79 80 81 0
-82 -83 0
-82 -84 0
-83 -84 0
82 83 84 0
-85 -86 0
-85 -87 0
-86 -87 0
85 86 87 0
-88 -89 0
-88 -90 0
-89 -90 0
88 89 90 0
-91 -92 0
-91 -93 0
-92 -93 0
91 92 93 0
-94 -95 0
-94 -96 0
-95 -96 0
94 95 96 0
-97 -98 0
-97 -99 0
-98 -99 0
97 98 99 0
-100 -101 0
-100 -102 0
-101 -102 0
100 101 102 0
-103 -104 0
-103 -105 0
-104 -105 0
103 104 105 0
-106 -107 0
-106 -108 0
-107 -108 0
106 107 108 0
-109 -110 0
-109 -111 0
-110 -111 0
109 110 111 0
-112 -113 0
-112 -114 0
-113 -114 0
112 113 114 0
-115 -116 0
-115 -117 0
-116 -117 0
115 116 117 0
-118 -119 0
-118 -120 0
-119 -120 0
118 119 120 0
-121 -122 0
-121 -123 0
-122 -123 0
121 122 123 0
-124 -125 0
-124 -126 0
-125 -126 0
124 125 126 0
-127 -128 0
-127 -129 0
-128 -129 0
127 128 129 0
-130 -131 0
-130 -132 0
-131 -132 0
130 131 132 0
-133 -134 0
-133 -135 0
-134 -135 0
133 134 135 0
-136 -137 0
-136 -138 0
-137 -138 0
136 137 138 0
-139 -140 0
-139 -141 0
-140 -141 0
139 140 141 0
-142 -143 0
-142 -144 0
-143 -144 0
142 143 144 0
-145 -146 0
-145 -147 0
-146 -147 0
145 146 147 0
-148 -149 0
-148 -150 0
-149 -150 0
148 149 150 0
-151 -152 0
-151 -153 0
-152 -153 0
151 152 153 0
-154 -155 0
-154 -156 0
-155 -156 0
154 155 156 0
-157 -158 0
-157 -159 0
-158 -159 0
157 158 159 0
-160 -161 0
-160 -162 0
-161 -162 0
160 161 162 0
-163 -164 0
-163 -165 0
-164 -165 0
163 164 165 0
-166 -167 0
-166 -168 0
-167 -168 0
166 167 168 0
-169 -170 0
-169 -171 0
-170 -171 0
169 170 171 0
-172 -173 0
-172 -174 0
-173 -174 0
172 173 174 0
-175 -176 0
-175 -177 0
-176 -177 0
175 176 177 0
-178 -179 0
-178 -180 0
-179 -180 0
178 179 180 0
-181 -182 0
-181 -183 0
-182 -183 0
181 182 183 0
-184 -185 0
-184 -186 0
-185 -186 0
184 185 186 0
-187 -188 0
-187 -189 0
-188 -189 0
187 188 189 0
-190 -191 0
-190 -192 0
-191 -192 0
190 191 192 0
-193 -194 0
-193 -195 0
-194 -195 0
193 194 195 0
-196 -197 0
-196 -198 0
-197 -198 0
196 197 198 0
-199 -200 0
-199 -201 0
-200 -201 0
199 200 201 0
-202 -203 0
-202 -204 0
-203 -204 0
202 203 204 0
-205 -206 0
-205 -207 0
-206 -207 0
205 206 207 0
-208 -209 0
-208 -210 0
-209 -210 0
208 209 210 0
-211 -212 0
-211 -213 0
-212 -213 0
211 212 213 0
-214 -215 0
-214 -216 0
-215 -216 0
214 215 216 0
-217 -218 0
-217 -219 0
-218 -219 0
217 218 219 0
-220 -221 0
-220 -222 0
-221 -222 0
220 221 222 0
-223 -224 0
-223 -225 0
-224 -225 0
223 224 225 0
-226 -227 0
-226 -228 0
-227 -228 0
226 227 228 0
-229 -230 0
-229 -231 0
-230 -231 0
229 230 231 0
-232 -233 0
-232 -234 0
-233 -234 0
232 233 234 0
-235 -236 0
-235 -237 0
-236 -237 0
235 236 237 0
-238 -239 0
-238 -240 0
-239 -240 0
238 239 240 0
-241 -242 0
-241 -243 0
-242 -243 0
241 242 243 0
-244 -245 0
-244 -246 0
-245 -246 0
244 245 246 0
-247 -248 0
-247 -249 0
-248 -249 0
247 248 249 0
-250 -251 0
-250 -252 0
-251 -252 0
250 251 252 0
-253 -254 0
-253 -255 0
-254 -255 0
253 254 255 0
-256 -257 0
-256 -258 0
-257 -258 0
256 257 258 0
-259 -260 0
-259 -261 0
-260 -261 0
259 260 261 0
-262 -263 0
-262 -264 0
-263 -264 0
262 263 264 0
-265 -266 0
-265 -267 0
-266 -267 0
265 266 267 0
-268 -269 0
-268 -270 0
-269 -270 0
268 269 270 0
-271 -272 0
-271 -273 0
-272 -273 0
271 272 273 0
-274 -275 0
-274 -276 0
-275 -276 0
274 275 276 0
-277 -278 0
-277 -279 0
-278 -279 0
277 278 279 0
-280 -281 0
-280 -282 0
-281 -282 0
280 281 282 0
-283 -284 0
-283 -285 0
-284 -285 0
283 284 285 0
-286 -287 0
-286 -288 0
-287 -288 0
286 287 288 0
-289 -290 0
-289 -291 0
-290 -291 0
289 290 291 0
-292 -293 0
-292 -294 0
-293 -294 0
292 293 294 0
-295 -296 0
-295 -297 0
-296 -297 0
295 296 297 0
-298 -299 0
-298 -300 0
-299 -300 0
298 299 300 0
-301 -302 0
-301 -303 0
-302 -303 0
301 302 303 0
-304 -305 0
-304 -306 0
-305 -306 0
304 305 306 0
-307 -308 0
-307 -309 0
-308 -309 0
307 308 309 0
-310 -311 0
-310 -312 0
-311 -312 0
310 311 312 0
-313 -314 0
-313 -315 0
-314 -315 0
313 314 315 0
-316 -317 0
-316 -318 0
-317 -318 0
316 317 318 0
-319 -320 0
-319 -321 0
-320 -321 0
319 320 321 0
-322 -323 0
-322 -324 0
-323 -324 0
322 323 324 0
-325 -326 0
-325 -327 0
-326 -327 0
325 326 327 0
-328 -329 0
-328 -330 0
-329 -330 0
328 329 330 0
-331 -332 0
-331 -333 0
-332 -333 0
331 332 333 0
-334 -335 0
-334 -336 0
-335 -336 0
334 335 336 0
-337 -338 0
-337 -339 0
-338 -339 0
337 338 339 0
-340 -341 0
-340 -342 0
-341 -342 0
340 341 342 0
-343 -344 0
-343 -345 0
-344 -345 0
343 344 345 0
-346 -347 0
-346 -348 0
-347 -348 0
346 347 348 0
-349 -350 0
-349 -351 0
-350 -351 0
349 350 351 0
-352 -353 0
-352 -354 0
-353 -354 0
352 353 354 0
-355 -356 0
-355 -357 0
-356 -357 0
355 356 357 0
-358 -359 0
-358 -360 0
-359 -360 0
358 359 360 0
-361 -362 0
-361 -363 0
-362 -363 0
361 362 363 0
-364 -365 0
-364 -366 0
-365 -366 0
364 365 366 0
-367 -368 0
-367 -369 0
-368 -369 0
367 368 369 0
-370 -371 0
-370 -372 0
-371 -372 0
370 371 372 0
-373 -374 0
-373 -375 0
-374 -375 0
373 374 375 0
-376 -377 0
-376 -378 0
-377 -378 0
376 377 378 0
-379 -380 0
-379 -381 0
-380 -381 0
379 380 381 0
-382 -383 0
-382 -384 0
-383 -384 0
382 383 384 0
-385 -386 0
-385 -387 0
-386 -387 0
385 386 387 0
-388 -389 0
-388 -390 0
-389 -390 0
388 389 390 0
-391 -392 0
-391 -393 0
-392 -393 0
391 392 393 0
-394 -395 0
-394 -396 0
-395 -396 0
394 395 396 0
-397 -398 0
-397 -399 0
-398 -399 0
397 398 399 0
-400 -401 0
-400 -402 0
-401 -402 0
400 401 402 0
-403 -404 0
-403 -405 0
-404 -405 0
403 404 405 0
-406 -407 0
-406 -408 0
-407 -408 0
406 407 408 0
-409 -410 0
-409 -411 0
-410 -411 0
409 410 411 0
-412 -413 0
-412 -414 0
-413 -414 0
412 413 414 0
-415 -416 0
-415 -417 0
-416 -417 0
415 416 417 0
-418 -419 0
-418 -420 0
-419 -420 0
418 419 420 0
-421 -422 0
-421 -423 0
-422 -423 0
421 422 423 0
-424 -425 0
-424 -426 0
-425 -426 0
424 425 426 0
-427 -428 0
-427 -429 0
-428 -429 0
427 428 429 0
-430 -431 0
-430 -432 0
-431 -432 0
430 431 432 0
-433 -434 0
-433 -435 0
-434 -435 0
433 434 435 0
-436 -437 0
-436 -438 0
-437 -438 0
436 437 438 0
-439 -440 0
-439 -441 0
-440 -441 0
439 440 441 0
-442 -443 0
-442 -444 0
-443 -444 0
442 443 444 0
-445 -446 0
-445 -447 0
-446 -447 0
445 446 447 0
-448 -449 0
-448 -450 0
-449 -450 0
448 449 450 0
-451 -452 0
-451 -453 0
-452 -453 0
451 452 453 0
-454 -455 0
-454 -456 0
-455 -456 0
454 455 456 0
-457 -458 0
-457 -459 0
-458 -459 0
457 458 459 0
-460 -461 0
-460 -462 0
-461 -462 0
460 461 462 0
-463 -464 0
-463 -465 0
-464 -465 0
463 464 465 0
-466 -467 0
-466 -468 0
-467 -468 0
466 467 468 0
-469 -470 0
-469 -471 0
-470 -471 0
469 470 471 0
-472 -473 0
-472 -474 0
-473 -474 0
472 473 474 0
-475 -476 0
-475 -477 0
-476 -477 0
475 476 477 0
-478 -479 0
-478 -480 0
-479 -480 0
478 479 480 0
-481 -482 0
-481 -483 0
-482 -483 0
481 482 483 0
-484 -485 0
-484 -486 0
-485 -486 0
484 485 486 0
-487 -488 0
-487 -489 0
-488 -489 0
487 488 489 0
-490 -491 0
-490 -492 0
-491 -492 0
490 491 492 0
-493 -494 0
-493 -495 0
-494 -495 0
493 494 495 0
-496 -497 0
-496 -498 0
-497 -498 0
496 497 498 0
-499 -500 0
-499 -501 0
-500 -501 0
499 500 501 0
-502 -503 0
-502 -504 0
-503 -504 0
502 503 504 0
-505 -506 0
-505 -507 0
-506 -507 0
505 506 507 0
-508 -509 0
-508 -510 0
-509 -510 0
508 509 510 0
-511 -512 0
-511 -513 0
-512 -513 0
511 512 513 0
-514 -515 0
-514 -516 0
-515 -516 0
514 515 516 0
-517 -518 0
-517 -519 0
-518 -519 0
517 518 519 0
-520 -521 0
-520 -522 0
-521 -522 0
520 521 522 0
-523 -524 0
-523 -525 0
-524 -525 0
523 524 525 0
-526 -527 0
-526 -528 0
-527 -528 0
526 527 528 0
-529 -530 0
-529 -531 0
-530 -531 0
529 530 531 0
-532 -533 0
-532 -534 0
-533 -534 0
532 533 534 0
-535 -536 0
-535 -537 0
-536 -537 0
535 536 537 0
-538 -539 0
-538 -540 0
-539 -540 0
538 539 540 0
-541 -542 0
-541 -543 0
-542 -543 0
541 542 543 0
-544 -545 0
-544 -546 0
-545 -546 0
544 545 546 0
-547 -548 0
-547 -549 0
-548 -549 0
547 548 549 0
-550 -551 0
-550 -552 0
-551 -552 0
550 551 552 0
-553 -554 0
-553 -555 0
-554 -555 0
553 554 555 0
-556 -557 0
-556 -558 0
-557 -558 0
556 557 558 0
-559 -560 0
-559 -561 0
-560 -561 0
559 560 561 0
-562 -563 0
-562 -564 0
-563 -564 0
562 563 564 0
-565 -566 0
-565 -567 0
-566 -567 0
565 566 567 0
-568 -569 0
-568 -570 0
-569 -570 0
568 569 570 0
-571 -572 0
-571 -573 0
-572 -573 0
571 572 573 0
-574 -575 0
-574 -576 0
-575 -576 0
574 575 576 0
-577 -578 0
-577 -579 0
-578 -579 0
577 578 579 0
-580 -581 0
-580 -582 0
-581 -582 0
580 581 582 0
-583 -584 0
-583 -585 0
-584 -585 0
583 584 585 0
-586 -587 0
-586 -588 0
-587 -588 0
586 587 588 0
-589 -590 0
-589 -591 0
-590 -591 0
589 590 591 0
-592 -593 0
-592 -594 0
-593 -594 0
592 593 594 0
-595 -596 0
-595 -597 0
-596 -597 0
595 596 597 0
-598 -599 0
-598 -600 0
-599 -600 0
598 599 600 0
-55 -1 0
-56 -2 0
-57 -3 0
-475 -1 0
-476 -2 0
-477 -3 0
-487 -1 0
-488 -2 0
-489 -3 0
-529 -1 0
-530 -2 0
-531 -3 0
-541 -1 0
-542 -2 0
-543 -3 0
-160 -4 0
-161 -5 0
-162 -6 0
-232 -4 0
-233 -5 0
-234 -6 0
-319 -4 0
-320 -5 0
-321 -6 0
-376 -4 0
-377 -5 0
-378 -6 0
-385 -4 0
-386 -5 0
-387 -6 0
-508 -4 0
-509 -5 0
-510 -6 0
-547 -4 0
-548 -5 0
-549 -6 0
-73 -7 0
-74 -8 0
-75 -9 0
-76 -7 0
-77 -8 0
-78 -9 0
-508 -7 0
-509 -8 0
-510 -9 0
-523 -7 0
-524 -8 0
-525 -9 0
-532 -7 0
-533 -8 0
-534 -9 0
-49 -10 0
-50 -11 0
-51 -12 0
-220 -10 0
-221 -11 0
-222 -12 0
-337 -10 0
-338 -11 0
-339 -12 0
-352 -10 0
-353 -11 0
-354 -12 0
-448 -10 0
-449 -11 0
-450 -12 0
-514 -10 0
-515 -11 0
-516 -12 0
-100 -13 0
-101 -14 0
-102 -15 0
-151 -13 0
-152 -14 0
-153 -15 0
-208 -13 0
-209 -14 0
-210 -15 0
-265 -13 0
-266 -14 0
-267 -15 0
-364 -13 0
-365 -14 0
-366 -15 0
-436 -13 0
-437 -14 0
-438 -15 0
-292 -16 0
-293 -17 0
-294 -18 0
-469 -16 0
-470 -17 0
-471 -18 0
-541 -16 0
-542 -17 0
-543 -18 0
-286 -19 0
-287 -20 0
-288 -21 0
-448 -19 0
-449 -20 0
-450 -21 0
-493 -19 0
-494 -20 0
-495 -21 0
-505 -19 0
-506 -20 0
-507 -21 0
-268 -22 0
-269 -23 0
-270 -24 0
-556 -22 0
-557 -23 0
-558 -24 0
-598 -22 0
-599 -23 0
-600 -24 0
-82 -25 0
-83 -26 0
-84 -27 0
-253 -25 0
-254 -26 0
-255 -27 0
-361 -25 0
-362 -26 0
-363 -27 0
-400 -25 0
-401 -26 0
-402 -27 0
-580 -25 0
-581 -26 0
-582 -27 0
-592 -25 0
-593 -26 0
-594 -27 0
-133 -28 0
-134 -29 0
-135 -30 0
-262 -28 0
-263 -29 0
-264 -30 0
-382 -28 0
-383 -29 0
-384 -30 0
-400 -28 0
-401 -29 0
-402 -30 0
-448 -28 0
-449 -29 0
-450 -30 0
-457 -28 0
-458 -29 0
-459 -30 0
-538 -28 0
-539 -29 0
-540 -30 0
-502 -31 0
-503 -32 0
-504 -33 0
-52 -34 0
-53 -35 0
-54 -36 0
-70 -34 0
-71 -35 0
-72 -36 0
-169 -37 0
-170 -38 0
-171 -39 0
-214 -37 0
-215 -38 0
-216 -39 0
-217 -37 0
-218 -38 0
-219 -39 0
-349 -37 0
-350 -38 0
-351 -39 0
-235 -40 0
-236 -41 0
-237 -42 0
-247 -40 0
-248 -41 0
-249 -42 0
-319 -40 0
-320 -41 0
-321 -42 0
-406 -40 0
-407 -41 0
-408 -42 0
-469 -40 0
-470 -41 0
-471 -42 0
-223 -43 0
-224 -44 0
-225 -45 0
-436 -43 0
-437 -44 0
-438 -45 0
-445 -43 0
-446 -44 0
-447 -45 0
-199 -46 0
-200 -47 0
-201 -48 0
-349 -46 0
-350 -47 0
-351 -48 0
-466 -46 0
-467 -47 0
-468 -48 0
-508 -46 0
-509 -47 0
-510 -48 0
-103 -49 0
-104 -50 0
-105 -51 0
-139 -49 0
-140 -50 0
-141 -51 0
-172 -49 0
-173 -50 0
-174 -51 0
-193 -49 0
-194 -50 0
-195 -51 0
-241 -49 0
-242 -50 0
-243 -51 0
-109 -52 0
-110 -53 0
-111 -54 0
-121 -52 0
-122 -53 0
-123 -54 0
-262 -52 0
-263 -53 0
-264 -54 0
-274 -52 0
-275 -53 0
-276 -54 0
-298 -52 0
-299 -53 0
-300 -54 0
-517 -52 0
-518 -53 0
-519 -54 0
-424 -55 0
-425 -56 0
-426 -57 0
-427 -55 0
-428 -56 0
-429 -57 0
-496 -55 0
-497 -56 0
-498 -57 0
-106 -58 0
-107 -59 0
-108 -60 0
-133 -58 0
-134 -59 0
-135 -60 0
-157 -58 0
-158 -59 0
-159 -60 0
-181 -58 0
-182 -59 0
-183 -60 0
-226 -58 0
-227 -59 0
-228 -60 0
-322 -58 0
-323 -59 0
-324 -60 0
-421 -58 0
-422 -59 0
-423 -60 0
-484 -58 0
-485 -59 0
-486 -60 0
-73 -61 0
-74 -62 0
-75 -63 0
-142 -61 0
-143 -62 0
-144 -63 0
-154 -61 0
-155 -62 0
-156 -63 0
-217 -61 0
-218 -62 0
-219 -63 0
-301 -61 0
-302 -62 0
-303 -63 0
-106 -64 0
-107 -65 0
-108 -66 0
-133 -64 0
-134 -65 0
-135 -66 0
-523 -64 0
-524 -65 0
-525 -66 0
-589 -64 0
-590 -65 0
-591 -66 0
-79 -67 0
-80 -68 0
-81 -69 0
-94 -67 0
-95 -68 0
-96 -69 0
-361 -67 0
-362 -68 0
-363 -69 0
-238 -70 0
-239 -71 0
-240 -72 0
-286 -70 0
-287 -71 0
-288 -72 0
-517 -70 0
-518 -71 0
-519 -72 0
-574 -70 0
-575 -71 0
-576 -72 0
-178 -73 0
-179 -74 0
-180 -75 0
-424 -73 0
-425 -74 0
-426 -75 0
-520 -73 0
-521 -74 0
-522 -75 0
-82 -76 0
-83 -77 0
-84 -78 0
-484 -76 0
-485 -77 0
-486 -78 0
-508 -76 0
-509 -77 0
-510 -78 0
-409 -79 0
-410 -80 0
-411 -81 0
-451 -79 0
-452 -80 0
-453 -81 0
-487 -79 0
-488 -80 0
-489 -81 0
-499 -79 0
-500 -80 0
-501 -81 0
-88 -82 0
-89 -83 0
-90 -84 0
-118 -82 0
-119 -83 0
-120 -84 0
-205 -82 0
-206 -83 0
-207 -84 0
-274 -82 0
-275 -83 0
-276 -84 0
-397 -82 0
-398 -83 0
-399 -84 0
-559 -82 0
-560 -83 0
-561 -84 0
-136 -85 0
-137 -86 0
-138 -87 0
-190 -85 0
-191 -86 0
-192 -87 0
-211 -85 0
-212 -86 0
-213 -87 0
-232 -85 0
-233 -86 0
-234 -87 0
-310 -85 0
-311 -86 0
-312 -87 0
-454 -88 0
-455 -89 0
-456 -90 0
-457 -88 0
-458 -89 0
-459 -90 0
-499 -88 0
-500 -89 0
-501 -90 0
-556 -88 0
-557 -89 0
-558 -90 0
-118 -91 0
-119 -92 0
-120 -93 0
-256 -91 0
-257 -92 0
-258 -93 0
-277 -91 0
-278 -92 0
-279 -93 0
-295 -91 0
-296 -92 0
-297 -93 0
-574 -91 0
-575 -92 0
-576 -93 0
-145 -94 0
-146 -95 0
-147 -96 0
-205 -94 0
-206 -95 0
-207 -96 0
-379 -94 0
-380 -95 0
-381 -96 0
-460 -94 0
-461 -95 0
-462 -96 0
-379 -97 0
-380 -98 0
-381 -99 0
-115 -100 0
-116 -101 0
-117 -102 0
-226 -100 0
-227 -101 0
-228 -102 0
-385 -100 0
-386 -101 0
-387 -102 0
-535 -100 0
-536 -101 0
-537 -102 0
-598 -100 0
-599 -101 0
-600 -102 0
-109 -106 0
-110 -107 0
-111 -108 0
-124 -106 0
-125 -107 0
-126 -108 0
-313 -106 0
-314 -107 0
-315 -108 0
-337 -106 0
-338 -107 0
-339 -108 0
-463 -106 0
-464 -107 0
-465 -108 0
-112 -109 0
-113 -110 0
-114 -111 0
-334 -109 0
-335 -110 0
-336 -111 0
-355 -109 0
-356 -110 0
-357 -111 0
-490 -109 0
-491 -110 0
-492 -111 0
-517 -109 0
-518 -110 0
-519 -111 0
-133 -112 0
-134 -113 0
-135 -114 0
-169 -112 0
-170 -113 0
-171 -114 0
-211 -112 0
-212 -113 0
-213 -114 0
-193 -115 0
-194 -116 0
-195 -117 0
-250 -115 0
-251 -116 0
-252 -117 0
-376 -115 0
-377 -116 0
-378 -117 0
-472 -115 0
-473 -116 0
-474 -117 0
-589 -115 0
-590 -116 0
-591 -117 0
-169 -118 0
-170 -119 0
-171 -120 0
-310 -118 0
-311 -119 0
-312 -120 0
-460 -118 0
-461 -119 0
-462 -120 0
-559 -118 0
-560 -119 0
-561 -120 0
-196 -121 0
-197 -122 0
-198 -123 0
-526 -121 0
-527 -122 0
-528 -123 0
-550 -121 0
-551 -122 0
-552 -123 0
-157 -124 0
-158 -125 0
-159 -126 0
-181 -124 0
-182 -125 0
-183 -126 0
-289 -124 0
-290 -125 0
-291 -126 0
-421 -124 0
-422 -125 0
-423 -126 0
-523 -124 0
-524 -125 0
-525 -126 0
-190 -127 0
-191 -128 0
-192 -129 0
-340 -127 0
-341 -128 0
-342 -129 0
-439 -127 0
-440 -128 0
-441 -129 0
-538 -127 0
-539 -128 0
-540 -129 0
-196 -130 0
-197 -131 0
-198 -132 0
-274 -130 0
-275 -131 0
-276 -132 0
-328 -130 0
-329 -131 0
-330 -132 0
-334 -130 0
-335 -131 0
-336 -132 0
-496 -130 0
-497 -131 0
-498 -132 0
-268 -133 0
-269 -134 0
-270 -135 0
-406 -133 0
-407 -134 0
-408 -135 0
-436 -133 0
-437 -134 0
-438 -135 0
-469 -133 0
-470 -134 0
-471 -135 0
-211 -136 0
-212 -137 0
-213 -138 0
-235 -136 0
-236 -137 0
-237 -138 0
-316 -136 0
-317 -137 0
-318 -138 0
-322 -136 0
-323 -137 0
-324 -138 0
-190 -139 0
-191 -140 0
-192 -141 0
-280 -139 0
-281 -140 0
-282 -141 0
-544 -139 0
-545 -140 0
-546 -141 0
-259 -142 0
-260 -143 0
-261 -144 0
-283 -142 0
-284 -143 0
-285 -144 0
-307 -142 0
-308 -143 0
-309 -144 0
-583 -142 0
-584 -143 0
-585 -144 0
-502 -145 0
-503 -146 0
-504 -147 0
-517 -145 0
-518 -146 0
-519 -147 0
-553 -145 0
-554 -146 0
-555 -147 0
-151 -148 0
-152 -149 0
-153 -150 0
-421 -148 0
-422 -149 0
-423 -150 0
-484 -148 0
-485 -149 0
-486 -150 0
-529 -148 0
-530 -149 0
-531 -150 0
-247 -151 0
-248 -152 0
-249 -153 0
-409 -151 0
-410 -152 0
-411 -153 0
-439 -151 0
-440 -152 0
-441 -153 0
-475 -151 0
-476 -152 0
-477 -153 0
-481 -151 0
-482 -152 0
-483 -153 0
-169 -154 0
-170 -155 0
-171 -156 0
-346 -154 0
-347 -155 0
-348 -156 0
-592 -154 0
-593 -155 0
-594 -156 0
-181 -157 0
-182 -158 0
-183 -159 0
-199 -157 0
-200 -158 0
-201 -159 0
-238 -157 0
-239 -158 0
-240 -159 0
-334 -157 0
-335 -158 0
-336 -159 0
-574 -157 0
-575 -158 0
-576 -159 0
-193 -160 0
-194 -161 0
-195 -162 0
-214 -160 0
-215 -161 0
-216 -162 0
-403 -160 0
-404 -161 0
-405 -162 0
-202 -163 0
-203 -164 0
-204 -165 0
-205 -163 0
-206 -164 0
-207 -165 0
-409 -163 0
-410 -164 0
-411 -165 0
-190 -166 0
-191 -167 0
-192 -168 0
-580 -166 0
-581 -167 0
-582 -168 0
-340 -169 0
-341 -170 0
-342 -171 0
-424 -169 0
-425 -170 0
-426 -171 0
-499 -169 0
-500 -170 0
-501 -171 0
-199 -172 0
-200 -173 0
-201 -174 0
-541 -172 0
-542 -173 0
-543 -174 0
-568 -172 0
-569 -173 0
-570 -174 0
-391 -175 0
-392 -176 0
-393 -177 0
-295 -178 0
-296 -179 0
-297 -180 0
-325 -178 0
-326 -179 0
-327 -180 0
-334 -178 0
-335 -179 0
-336 -180 0
-553 -178 0
-554 -179 0
-555 -180 0
-250 -181 0
-251 -182 0
-252 -183 0
-331 -181 0
-332 -182 0
-333 -183 0
-412 -181 0
-413 -182 0
-414 -183 0
-259 -184 0
-260 -185 0
-261 -186 0
-283 -184 0
-284 -185 0
-285 -186 0
-307 -184 0
-308 -185 0
-309 -186 0
-331 -184 0
-332 -185 0
-333 -186 0
-535 -184 0
-536 -185 0
-537 -186 0
-556 -184 0
-557 -185 0
-558 -186 0
-196 -187 0
-197 -188 0
-198 -189 0
-283 -187 0
-284 -188 0
-285 -189 0
-322 -187 0
-323 -188 0
-324 -189 0
-481 -187 0
-482 -188 0
-483 -189 0
-193 -190 0
-194 -191 0
-195 -192 0
-598 -190 0
-599 -191 0
-600 -192 0
-430 -193 0
-431 -194 0
-432 -195 0
-553 -193 0
-554 -194 0
-555 -195 0
-223 -196 0
-224 -197 0
-225 -198 0
-358 -196 0
-359 -197 0
-360 -198 0
-427 -196 0
-428 -197 0
-429 -198 0
-556 -196 0
-557 -197 0
-558 -198 0
-571 -196 0
-572 -197 0
-573 -198 0
-250 -199 0
-251 -200 0
-252 -201 0
-268 -199 0
-269 -200 0
-270 -201 0
-340 -199 0
-341 -200 0
-342 -201 0
-424 -199 0
-425 -200 0
-426 -201 0
-451 -199 0
-452 -200 0
-453 -201 0
-241 -202 0
-242 -203 0
-243 -204 0
-448 -202 0
-449 -203 0
-450 -204 0
-526 -202 0
-527 -203 0
-528 -204 0
-271 -205 0
-272 -206 0
-273 -207 0
-367 -205 0
-368 -206 0
-369 -207 0
-556 -205 0
-557 -206 0
-558 -207 0
-235 -211 0
-236 -212 0
-237 -213 0
-283 -211 0
-284 -212 0
-285 -213 0
-385 -211 0
-386 -212 0
-387 -213 0
-391 -211 0
-392 -212 0
-393 -213 0
-418 -211 0
-419 -212 0
-420 -213 0
-289 -214 0
-290 -215 0
-291 -216 0
-382 -214 0
-383 -215 0
-384 -216 0
-571 -214 0
-572 -215 0
-573 -216 0
-589 -214 0
-590 -215 0
-591 -216 0
-229 -217 0
-230 -218 0
-231 -219 0
-442 -217 0
-443 -218 0
-444 -219 0
-517 -217 0
-518 -218 0
-519 -219 0
-544 -217 0
-545 -218 0
-546 -219 0
-355 -220 0
-356 -221 0
-357 -222 0
-373 -223 0
-374 -224 0
-375 -225 0
-442 -223 0
-443 -224 0
-444 -225 0
-547 -223 0
-548 -224 0
-549 -225 0
-463 -226 0
-464 -227 0
-465 -228 0
-436 -232 0
-437 -233 0
-438 -234 0
-595 -235 0
-596 -236 0
-597 -237 0
-403 -238 0
-404 -239 0
-405 -240 0
-514 -238 0
-515 -239 0
-516 -240 0
-571 -238 0
-572 -239 0
-573 -240 0
-367 -241 0
-368 -242 0
-369 -243 0
-394 -241 0
-395 -242 0
-396 -243 0
-544 -241 0
-545 -242 0
-546 -243 0
-370 -244 0
-371 -245 0
-372 -246 0
-397 -244 0
-398 -245 0
-399 -246 0
-592 -244 0
-593 -245 0
-594 -246 0
-370 -247 0
-371 -248 0
-372 -249 0
-373 -247 0
-374 -248 0
-375 -249 0
-436 -247 0
-437 -248 0
-438 -249 0
-442 -247 0
-443 -248 0
-444 -249 0
-481 -247 0
-482 -248 0
-483 -249 0
-550 -247 0
-551 -248 0
-552 -249 0
-337 -250 0
-338 -251 0
-339 -252 0
-511 -253 0
-512 -254 0
-513 -255 0
-583 -253 0
-584 -254 0
-585 -255 0
-289 -256 0
-290 -257 0
-291 -258 0
-430 -256 0
-431 -257 0
-432 -258 0
-460 -256 0
-461 -257 0
-462 -258 0
-262 -259 0
-263 -260 0
-264 -261 0
-532 -259 0
-533 -260 0
-534 -261 0
-571 -259 0
-572 -260 0
-573 -261 0
-286 -262 0
-287 -263 0
-288 -264 0
-430 -262 0
-431 -263 0
-432 -264 0
-463 -265 0
-464 -266 0
-465 -267 0
-481 -265 0
-482 -266 0
-483 -267 0
-589 -265 0
-590 -266 0
-591 -267 0
-598 -265 0
-599 -266 0
-600 -267 0
-310 -268 0
-311 -269 0
-312 -270 0
-325 -268 0
-326 -269 0
-327 -270 0
-421 -268 0
-422 -269 0
-423 -270 0
-481 -268 0
-482 -269 0
-483 -270 0
-352 -271 0
-353 -272 0
-354 -273 0
-499 -271 0
-500 -272 0
-501 -273 0
-544 -271 0
-545 -272 0
-546 -273 0
-460 -274 0
-461 -275 0
-462 -276 0
-517 -274 0
-518 -275 0
-519 -276 0
-325 -277 0
-326 -278 0
-327 -279 0
-379 -277 0
-380 -278 0
-381 -279 0
-436 -277 0
-437 -278 0
-438 -279 0
-463 -277 0
-464 -278 0
-465 -279 0
-373 -280 0
-374 -281 0
-375 -282 0
-406 -280 0
-407 -281 0
-408 -282 0
-562 -280 0
-563 -281 0
-564 -282 0
-583 -280 0
-584 -281 0
-585 -282 0
-298 -283 0
-299 -284 0
-300 -285 0
-445 -283 0
-446 -284 0
-447 -285 0
-511 -283 0
-512 -284 0
-513 -285 0
-526 -283 0
-527 -284 0
-528 -285 0
-361 -286 0
-362 -287 0
-363 -288 0
-451 -289 0
-452 -290 0
-453 -291 0
-541 -289 0
-542 -290 0
-543 -291 0
-331 -292 0
-332 -293 0
-333 -294 0
-352 -292 0
-353 -293 0
-354 -294 0
-457 -292 0
-458 -293 0
-459 -294 0
-520 -292 0
-521 -293 0
-522 -294 0
-430 -295 0
-431 -296 0
-432 -297 0
-514 -295 0
-515 -296 0
-516 -297 0
-400 -298 0
-401 -299 0
-402 -300 0
-415 -301 0
-416 -302 0
-417 -303 0
-508 -301 0
-509 -302 0
-510 -303 0
-385 -304 0
-386 -305 0
-387 -306 0
-511 -304 0
-512 -305 0
-513 -306 0
-538 -304 0
-539 -305 0
-540 -306 0
-565 -307 0
-566 -308 0
-567 -309 0
-586 -307 0
-587 -308 0
-588 -309 0
-595 -307 0
-596 -308 0
-597 -309 0
-313 -310 0
-314 -311 0
-315 -312 0
-316 -310 0
-317 -311 0
-318 -312 0
-505 -310 0
-506 -311 0
-507 -312 0
-529 -310 0
-530 -311 0
-531 -312 0
-349 -313 0
-350 -314 0
-351 -315 0
-373 -313 0
-374 -314 0
-375 -315 0
-328 -316 0
-329 -317 0
-330 -318 0
-367 -316 0
-368 -317 0
-369 -318 0
-508 -316 0
-509 -317 0
-510 -318 0
-523 -316 0
-524 -317 0
-525 -318 0
-595 -319 0
-596 -320 0
-597 -321 0
-499 -322 0
-500 -323 0
-501 -324 0
-457 -325 0
-458 -326 0
-459 -327 0
-490 -328 0
-491 -329 0
-492 -330 0
-412 -331 0
-413 -332 0
-414 -333 0
-430 -331 0
-431 -332 0
-432 -333 0
-433 -331 0
-434 -332 0
-435 -333 0
-547 -331 0
-548 -332 0
-549 -333 0
-478 -334 0
-479 -335 0
-480 -336 0
-484 -334 0
-485 -335 0
-486 -336 0
-598 -334 0
-599 -335 0
-600 -336 0
-400 -337 0
-401 -338 0
-402 -339 0
-451 -340 0
-452 -341 0
-453 -342 0
-475 -340 0
-476 -341 0
-477 -342 0
-583 -340 0
-584 -341 0
-585 -342 0
-394 -343 0
-395 -344 0
-396 -345 0
-442 -343 0
-443 -344 0
-444 -345 0
-469 -343 0
-470 -344 0
-471 -345 0
-592 -343 0
-593 -344 0
-594 -345 0
-595 -343 0
-596 -344 0
-597 -345 0
-391 -346 0
-392 -347 0
-393 -348 0
-487 -346 0
-488 -347 0
-489 -348 0
-499 -346 0
-500 -347 0
-501 -348 0
-373 -349 0
-374 -350 0
-375 -351 0
-556 -349 0
-557 -350 0
-558 -351 0
-427 -352 0
-428 -353 0
-429 -354 0
-436 -352 0
-437 -353 0
-438 -354 0
-529 -352 0
-530 -353 0
-531 -354 0
-400 -355 0
-401 -356 0
-402 -357 0
-376 -358 0
-377 -359 0
-378 -360 0
-379 -361 0
-380 -362 0
-381 -363 0
-478 -361 0
-479 -362 0
-480 -363 0
-382 -364 0
-383 -365 0
-384 -366 0
-448 -364 0
-449 -365 0
-450 -366 0
-400 -367 0
-401 -368 0
-402 -369 0
-418 -367 0
-419 -368 0
-420 -369 0
-460 -367 0
-461 -368 0
-462 -369 0
-472 -370 0
-473 -371 0
-474 -372 0
-532 -370 0
-533 -371 0
-534 -372 0
-439 -373 0
-440 -374 0
-441 -375 0
-475 -373 0
-476 -374 0
-477 -375 0
-511 -373 0
-512 -374 0
-513 -375 0
-397 -379 0
-398 -380 0
-399 -381 0
-442 -379 0
-443 -380 0
-444 -381 0
-421 -382 0
-422 -383 0
-423 -384 0
-469 -385 0
-470 -386 0
-471 -387 0
-490 -385 0
-491 -386 0
-492 -387 0
-508 -388 0
-509 -389 0
-510 -390 0
-520 -388 0
-521 -389 0
-522 -390 0
-547 -388 0
-548 -389 0
-549 -390 0
-577 -388 0
-578 -389 0
-579 -390 0
-409 -394 0
-410 -395 0
-411 -396 0
-466 -394 0
-467 -395 0
-468 -396 0
-472 -394 0
-473 -395 0
-474 -396 0
-424 -397 0
-425 -398 0
-426 -399 0
-454 -397 0
-455 -398 0
-456 -399 0
-439 -400 0
-440 -401 0
-441 -402 0
-418 -403 0
-419 -404 0
-420 -405 0
-445 -403 0
-446 -404 0
-447 -405 0
-496 -403 0
-497 -404 0
-498 -405 0
-571 -403 0
-572 -404 0
-573 -405 0
-493 -406 0
-494 -407 0
-495 -408 0
-475 -412 0
-476 -413 0
-477 -414 0
-499 -412 0
-500 -413 0
-501 -414 0
-571 -412 0
-572 -413 0
-573 -414 0
-466 -415 0
-467 -416 0
-468 -417 0
-496 -418 0
-497 -419 0
-498 -420 0
-472 -424 0
-473 -425 0
-474 -426 0
-475 -424 0
-476 -425 0
-477 -426 0
-526 -427 0
-527 -428 0
-528 -429 0
-568 -430 0
-569 -431 0
-570 -432 0
-472 -433 0
-473 -434 0
-474 -435 0
-502 -439 0
-503 -440 0
-504 -441 0
-577 -442 0
-578 -443 0
-579 -444 0
-490 -445 0
-491 -446 0
-492 -447 0
-577 -445 0
-578 -446 0
-579 -447 0
-556 -448 0
-557 -449 0
-558 -450 0
-487 -451 0
-488 -452 0
-489 -453 0
-595 -451 0
-596 -452 0
-597 -453 0
-559 -454 0
-560 -455 0
-561 -456 0
-568 -457 0
-569 -458 0
-570 -459 0
-475 -460 0
-476 -461 0
-477 -462 0
-559 -469 0
-560 -470 0
-561 -471 0
-586 -472 0
-587 -473 0
-588 -474 0
-535 -481 0
-536 -482 0
-537 -483 0
-562 -481 0
-563 -482 0
-564 -483 0
-547 -484 0
-548 -485 0
-549 -486 0
-514 -490 0
-515 -491 0
-516 -492 0
-577 -490 0
-578 -491 0
-579 -492 0
-523 -493 0
-524 -494 0
-525 -495 0
-535 -493 0
-536 -494 0
-537 -495 0
-562 -493 0
-563 -494 0
-564 -495 0
-586 -493 0
-587 -494 0
-588 -495 0
-505 -496 0
-506 -497 0
-507 -498 0
-529 -496 0
-530 -497 0
-531 -498 0
-589 -511 0
-590 -512 0
-591 -513 0
-547 -514 0
-548 -515 0
-549 -516 0
-592 -523 0
-593 -524 0
-594 -525 0
-592 -526 0
-593 -527 0
-594 -528 0
-565 -541 0
-566 -542 0
-567 -543 0
-574 -541 0
-575 -542 0
-576 -543 0
-577 -544 0
-578 -545 0
-579 -546 0
-580 -568 0
-581 -569 0
-582 -570 0
-586 -580 0
-587 -581 0
-588 -582 0
-589 -583 0
-590 -584 0
-591 -585 0
